TCS_Benchmarks/redos_fix/regexlib1_output_distinct_1114_1113_16_0.txt
([ \.|]*)([^ a-z]*)
([ \.|]*)((box)?[ 0-9]*)([^ a-z]*)